\Problem name: compact

Minimize
OBJROW: C
Subject To
ord(0,1):  x(0,0) - x(0,1) >= 6
ord(0,2):  - x(0,0) + x(0,2) >= 10
ord(1,1):  - x(1,0) + x(1,1) >= 6
ord(1,2):  - x(1,1) + x(1,2) >= 7
ord(2,1):  x(2,1) - x(2,2) >= 10
ord(2,2):  x(2,0) - x(2,1) >= 4
ord(3,1):  x(3,0) - x(3,2) >= 3
ord(3,2):  - x(3,0) + x(3,1) >= 1
triangle2(0,1,0):  y(0,1,0) + y(1,0,0) = 1
triangle2(0,1,1):  y(0,1,1) + y(1,0,1) = 1
triangle2(0,1,2):  y(0,1,2) + y(1,0,2) = 1
triangle2(0,2,0):  y(0,2,0) + y(2,0,0) = 1
triangle2(0,2,1):  y(0,2,1) + y(2,0,1) = 1
triangle2(0,2,2):  y(0,2,2) + y(2,0,2) = 1
triangle2(0,3,0):  y(0,3,0) + y(3,0,0) = 1
triangle2(0,3,1):  y(0,3,1) + y(3,0,1) = 1
triangle2(0,3,2):  y(0,3,2) + y(3,0,2) = 1
triangle2(1,2,0):  y(1,2,0) + y(2,1,0) = 1
triangle2(1,2,1):  y(1,2,1) + y(2,1,1) = 1
triangle2(1,2,2):  y(1,2,2) + y(2,1,2) = 1
triangle2(1,3,0):  y(1,3,0) + y(3,1,0) = 1
triangle2(1,3,1):  y(1,3,1) + y(3,1,1) = 1
triangle2(1,3,2):  y(1,3,2) + y(3,1,2) = 1
triangle2(2,3,0):  y(2,3,0) + y(3,2,0) = 1
triangle2(2,3,1):  y(2,3,1) + y(3,2,1) = 1
triangle2(2,3,2):  y(2,3,2) + y(3,2,2) = 1
MCLinV(0,1,0):  x(0,0) - v(0,1,0) - x(1,0) = 6
MCLinV(1,0,0):  - x(0,0) - v(1,0,0) + x(1,0) = 10
MCLin1(0,1,0):  u(0,1,0) >= -0
MCLin2(0,1,0):  -44 y(1,0,0) - u(0,1,0) <= -0
MCLin3(0,1,0):  44 y(1,0,0) + v(0,1,0) - u(0,1,0) <= 44
MCLin4(0,1,0):  44 y(1,0,0) - u(0,1,0) >= -0
MCLin5(0,1,0):  -44 y(1,0,0) + v(0,1,0) - u(0,1,0) >= -44
MCLin6(1,0,0):  u(1,0,0) >= -0
MCLin7(1,0,0):  -60 y(0,1,0) - u(1,0,0) <= -0
MCLin8(1,0,0):  28 y(0,1,0) + v(1,0,0) - u(1,0,0) <= 28
MCLin9(1,0,0):  28 y(0,1,0) - u(1,0,0) >= -0
MCLin10(1,0,0):  -60 y(0,1,0) + v(1,0,0) - u(1,0,0) >= -60
MCLinV(0,1,1):  x(0,1) - v(0,1,1) - x(1,1) = 7
MCLinV(1,0,1):  - x(0,1) - v(1,0,1) + x(1,1) = 6
MCLin1(0,1,1):  u(0,1,1) >= -0
MCLin2(0,1,1):  -57 y(1,0,1) - u(0,1,1) <= -0
MCLin3(0,1,1):  31 y(1,0,1) + v(0,1,1) - u(0,1,1) <= 31
MCLin4(0,1,1):  31 y(1,0,1) - u(0,1,1) >= -0
MCLin5(0,1,1):  -57 y(1,0,1) + v(0,1,1) - u(0,1,1) >= -57
MCLin6(1,0,1):  u(1,0,1) >= -0
MCLin7(1,0,1):  -44 y(0,1,1) - u(1,0,1) <= -0
MCLin8(1,0,1):  44 y(0,1,1) + v(1,0,1) - u(1,0,1) <= 44
MCLin9(1,0,1):  44 y(0,1,1) - u(1,0,1) >= -0
MCLin10(1,0,1):  -44 y(0,1,1) + v(1,0,1) - u(1,0,1) >= -44
MCLinV(0,1,2):  x(0,2) - v(0,1,2) - x(1,2) = 4
MCLinV(1,0,2):  - x(0,2) - v(1,0,2) + x(1,2) = 1
MCLin1(0,1,2):  u(0,1,2) >= -0
MCLin2(0,1,2):  -45 y(1,0,2) - u(0,1,2) <= -0
MCLin3(0,1,2):  43 y(1,0,2) + v(0,1,2) - u(0,1,2) <= 43
MCLin4(0,1,2):  43 y(1,0,2) - u(0,1,2) >= -0
MCLin5(0,1,2):  -45 y(1,0,2) + v(0,1,2) - u(0,1,2) >= -45
MCLin6(1,0,2):  u(1,0,2) >= -0
MCLin7(1,0,2):  -48 y(0,1,2) - u(1,0,2) <= -0
MCLin8(1,0,2):  40 y(0,1,2) + v(1,0,2) - u(1,0,2) <= 40
MCLin9(1,0,2):  40 y(0,1,2) - u(1,0,2) >= -0
MCLin10(1,0,2):  -48 y(0,1,2) + v(1,0,2) - u(1,0,2) >= -48
MCLinV(0,2,0):  x(0,0) - v(0,2,0) - x(2,0) = 6
MCLinV(2,0,0):  - x(0,0) - v(2,0,0) + x(2,0) = 10
MCLin1(0,2,0):  u(0,2,0) >= -0
MCLin2(0,2,0):  -55 y(2,0,0) - u(0,2,0) <= -0
MCLin3(0,2,0):  30 y(2,0,0) + v(0,2,0) - u(0,2,0) <= 30
MCLin4(0,2,0):  30 y(2,0,0) - u(0,2,0) >= -0
MCLin5(0,2,0):  -55 y(2,0,0) + v(0,2,0) - u(0,2,0) >= -55
MCLin6(2,0,0):  u(2,0,0) >= -0
MCLin7(2,0,0):  -46 y(0,2,0) - u(2,0,0) <= -0
MCLin8(2,0,0):  39 y(0,2,0) + v(2,0,0) - u(2,0,0) <= 39
MCLin9(2,0,0):  39 y(0,2,0) - u(2,0,0) >= -0
MCLin10(2,0,0):  -46 y(0,2,0) + v(2,0,0) - u(2,0,0) >= -46
MCLinV(0,2,1):  x(0,1) - v(0,2,1) - x(2,1) = 4
MCLinV(2,0,1):  - x(0,1) - v(2,0,1) + x(2,1) = 6
MCLin1(0,2,1):  u(0,2,1) >= -0
MCLin2(0,2,1):  -55 y(2,0,1) - u(0,2,1) <= -0
MCLin3(0,2,1):  30 y(2,0,1) + v(0,2,1) - u(0,2,1) <= 30
MCLin4(0,2,1):  30 y(2,0,1) - u(0,2,1) >= -0
MCLin5(0,2,1):  -55 y(2,0,1) + v(0,2,1) - u(0,2,1) >= -55
MCLin6(2,0,1):  u(2,0,1) >= -0
MCLin7(2,0,1):  -40 y(0,2,1) - u(2,0,1) <= -0
MCLin8(2,0,1):  45 y(0,2,1) + v(2,0,1) - u(2,0,1) <= 45
MCLin9(2,0,1):  45 y(0,2,1) - u(2,0,1) >= -0
MCLin10(2,0,1):  -40 y(0,2,1) + v(2,0,1) - u(2,0,1) >= -40
MCLinV(0,2,2):  x(0,2) - v(0,2,2) - x(2,2) = 10
MCLinV(2,0,2):  - x(0,2) - v(2,0,2) + x(2,2) = 1
MCLin1(0,2,2):  u(0,2,2) >= -0
MCLin2(0,2,2):  -35 y(2,0,2) - u(0,2,2) <= -0
MCLin3(0,2,2):  50 y(2,0,2) + v(0,2,2) - u(0,2,2) <= 50
MCLin4(0,2,2):  50 y(2,0,2) - u(0,2,2) >= -0
MCLin5(0,2,2):  -35 y(2,0,2) + v(0,2,2) - u(0,2,2) >= -35
MCLin6(2,0,2):  u(2,0,2) >= -0
MCLin7(2,0,2):  -61 y(0,2,2) - u(2,0,2) <= -0
MCLin8(2,0,2):  24 y(0,2,2) + v(2,0,2) - u(2,0,2) <= 24
MCLin9(2,0,2):  24 y(0,2,2) - u(2,0,2) >= -0
MCLin10(2,0,2):  -61 y(0,2,2) + v(2,0,2) - u(2,0,2) >= -61
MCLinV(0,3,0):  x(0,0) - v(0,3,0) - x(3,0) = 1
MCLinV(3,0,0):  - x(0,0) - v(3,0,0) + x(3,0) = 10
MCLin1(0,3,0):  u(0,3,0) >= -0
MCLin2(0,3,0):  -52 y(3,0,0) - u(0,3,0) <= -0
MCLin3(0,3,0):  46 y(3,0,0) + v(0,3,0) - u(0,3,0) <= 46
MCLin4(0,3,0):  46 y(3,0,0) - u(0,3,0) >= -0
MCLin5(0,3,0):  -52 y(3,0,0) + v(0,3,0) - u(0,3,0) >= -52
MCLin6(3,0,0):  u(3,0,0) >= -0
MCLin7(3,0,0):  -57 y(0,3,0) - u(3,0,0) <= -0
MCLin8(3,0,0):  41 y(0,3,0) + v(3,0,0) - u(3,0,0) <= 41
MCLin9(3,0,0):  41 y(0,3,0) - u(3,0,0) >= -0
MCLin10(3,0,0):  -57 y(0,3,0) + v(3,0,0) - u(3,0,0) >= -57
MCLinV(0,3,1):  x(0,1) - v(0,3,1) - x(3,1) = 3
MCLinV(3,0,1):  - x(0,1) - v(3,0,1) + x(3,1) = 6
MCLin1(0,3,1):  u(0,3,1) >= -0
MCLin2(0,3,1):  -61 y(3,0,1) - u(0,3,1) <= -0
MCLin3(0,3,1):  37 y(3,0,1) + v(0,3,1) - u(0,3,1) <= 37
MCLin4(0,3,1):  37 y(3,0,1) - u(0,3,1) >= -0
MCLin5(0,3,1):  -61 y(3,0,1) + v(0,3,1) - u(0,3,1) >= -61
MCLin6(3,0,1):  u(3,0,1) >= -0
MCLin7(3,0,1):  -46 y(0,3,1) - u(3,0,1) <= -0
MCLin8(3,0,1):  52 y(0,3,1) + v(3,0,1) - u(3,0,1) <= 52
MCLin9(3,0,1):  52 y(0,3,1) - u(3,0,1) >= -0
MCLin10(3,0,1):  -46 y(0,3,1) + v(3,0,1) - u(3,0,1) >= -46
MCLinV(0,3,2):  x(0,2) - v(0,3,2) - x(3,2) = 3
MCLinV(3,0,2):  - x(0,2) - v(3,0,2) + x(3,2) = 1
MCLin1(0,3,2):  u(0,3,2) >= -0
MCLin2(0,3,2):  -41 y(3,0,2) - u(0,3,2) <= -0
MCLin3(0,3,2):  57 y(3,0,2) + v(0,3,2) - u(0,3,2) <= 57
MCLin4(0,3,2):  57 y(3,0,2) - u(0,3,2) >= -0
MCLin5(0,3,2):  -41 y(3,0,2) + v(0,3,2) - u(0,3,2) >= -41
MCLin6(3,0,2):  u(3,0,2) >= -0
MCLin7(3,0,2):  -61 y(0,3,2) - u(3,0,2) <= -0
MCLin8(3,0,2):  37 y(0,3,2) + v(3,0,2) - u(3,0,2) <= 37
MCLin9(3,0,2):  37 y(0,3,2) - u(3,0,2) >= -0
MCLin10(3,0,2):  -61 y(0,3,2) + v(3,0,2) - u(3,0,2) >= -61
MCLinV(1,2,0):  x(1,0) - v(1,2,0) - x(2,0) = 6
MCLinV(2,1,0):  - x(1,0) - v(2,1,0) + x(2,0) = 6
MCLin1(1,2,0):  u(1,2,0) >= -0
MCLin2(1,2,0):  -61 y(2,1,0) - u(1,2,0) <= -0
MCLin3(1,2,0):  24 y(2,1,0) + v(1,2,0) - u(1,2,0) <= 24
MCLin4(1,2,0):  24 y(2,1,0) - u(1,2,0) >= -0
MCLin5(1,2,0):  -61 y(2,1,0) + v(1,2,0) - u(1,2,0) >= -61
MCLin6(2,1,0):  u(2,1,0) >= -0
MCLin7(2,1,0):  -36 y(1,2,0) - u(2,1,0) <= -0
MCLin8(2,1,0):  49 y(1,2,0) + v(2,1,0) - u(2,1,0) <= 49
MCLin9(2,1,0):  49 y(1,2,0) - u(2,1,0) >= -0
MCLin10(2,1,0):  -36 y(1,2,0) + v(2,1,0) - u(2,1,0) >= -36
MCLinV(1,2,1):  x(1,1) - v(1,2,1) - x(2,1) = 4
MCLinV(2,1,1):  - x(1,1) - v(2,1,1) + x(2,1) = 7
MCLin1(1,2,1):  u(1,2,1) >= -0
MCLin2(1,2,1):  -49 y(2,1,1) - u(1,2,1) <= -0
MCLin3(1,2,1):  36 y(2,1,1) + v(1,2,1) - u(1,2,1) <= 36
MCLin4(1,2,1):  36 y(2,1,1) - u(1,2,1) >= -0
MCLin5(1,2,1):  -49 y(2,1,1) + v(1,2,1) - u(1,2,1) >= -49
MCLin6(2,1,1):  u(2,1,1) >= -0
MCLin7(2,1,1):  -47 y(1,2,1) - u(2,1,1) <= -0
MCLin8(2,1,1):  38 y(1,2,1) + v(2,1,1) - u(2,1,1) <= 38
MCLin9(2,1,1):  38 y(1,2,1) - u(2,1,1) >= -0
MCLin10(2,1,1):  -47 y(1,2,1) + v(2,1,1) - u(2,1,1) >= -47
MCLinV(1,2,2):  x(1,2) - v(1,2,2) - x(2,2) = 10
MCLinV(2,1,2):  - x(1,2) - v(2,1,2) + x(2,2) = 4
MCLin1(1,2,2):  u(1,2,2) >= -0
MCLin2(1,2,2):  -38 y(2,1,2) - u(1,2,2) <= -0
MCLin3(1,2,2):  47 y(2,1,2) + v(1,2,2) - u(1,2,2) <= 47
MCLin4(1,2,2):  47 y(2,1,2) - u(1,2,2) >= -0
MCLin5(1,2,2):  -38 y(2,1,2) + v(1,2,2) - u(1,2,2) >= -38
MCLin6(2,1,2):  u(2,1,2) >= -0
MCLin7(2,1,2):  -61 y(1,2,2) - u(2,1,2) <= -0
MCLin8(2,1,2):  24 y(1,2,2) + v(2,1,2) - u(2,1,2) <= 24
MCLin9(2,1,2):  24 y(1,2,2) - u(2,1,2) >= -0
MCLin10(2,1,2):  -61 y(1,2,2) + v(2,1,2) - u(2,1,2) >= -61
MCLinV(1,3,0):  x(1,0) - v(1,3,0) - x(3,0) = 1
MCLinV(3,1,0):  - x(1,0) - v(3,1,0) + x(3,0) = 6
MCLin1(1,3,0):  u(1,3,0) >= -0
MCLin2(1,3,0):  -58 y(3,1,0) - u(1,3,0) <= -0
MCLin3(1,3,0):  40 y(3,1,0) + v(1,3,0) - u(1,3,0) <= 40
MCLin4(1,3,0):  40 y(3,1,0) - u(1,3,0) >= -0
MCLin5(1,3,0):  -58 y(3,1,0) + v(1,3,0) - u(1,3,0) >= -58
MCLin6(3,1,0):  u(3,1,0) >= -0
MCLin7(3,1,0):  -47 y(1,3,0) - u(3,1,0) <= -0
MCLin8(3,1,0):  51 y(1,3,0) + v(3,1,0) - u(3,1,0) <= 51
MCLin9(3,1,0):  51 y(1,3,0) - u(3,1,0) >= -0
MCLin10(3,1,0):  -47 y(1,3,0) + v(3,1,0) - u(3,1,0) >= -47
MCLinV(1,3,1):  x(1,1) - v(1,3,1) - x(3,1) = 3
MCLinV(3,1,1):  - x(1,1) - v(3,1,1) + x(3,1) = 7
MCLin1(1,3,1):  u(1,3,1) >= -0
MCLin2(1,3,1):  -55 y(3,1,1) - u(1,3,1) <= -0
MCLin3(1,3,1):  43 y(3,1,1) + v(1,3,1) - u(1,3,1) <= 43
MCLin4(1,3,1):  43 y(3,1,1) - u(1,3,1) >= -0
MCLin5(1,3,1):  -55 y(3,1,1) + v(1,3,1) - u(1,3,1) >= -55
MCLin6(3,1,1):  u(3,1,1) >= -0
MCLin7(3,1,1):  -53 y(1,3,1) - u(3,1,1) <= -0
MCLin8(3,1,1):  45 y(1,3,1) + v(3,1,1) - u(3,1,1) <= 45
MCLin9(3,1,1):  45 y(1,3,1) - u(3,1,1) >= -0
MCLin10(3,1,1):  -53 y(1,3,1) + v(3,1,1) - u(3,1,1) >= -53
MCLinV(1,3,2):  x(1,2) - v(1,3,2) - x(3,2) = 3
MCLinV(3,1,2):  - x(1,2) - v(3,1,2) + x(3,2) = 4
MCLin1(1,3,2):  u(1,3,2) >= -0
MCLin2(1,3,2):  -44 y(3,1,2) - u(1,3,2) <= -0
MCLin3(1,3,2):  54 y(3,1,2) + v(1,3,2) - u(1,3,2) <= 54
MCLin4(1,3,2):  54 y(3,1,2) - u(1,3,2) >= -0
MCLin5(1,3,2):  -44 y(3,1,2) + v(1,3,2) - u(1,3,2) >= -44
MCLin6(3,1,2):  u(3,1,2) >= -0
MCLin7(3,1,2):  -61 y(1,3,2) - u(3,1,2) <= -0
MCLin8(3,1,2):  37 y(1,3,2) + v(3,1,2) - u(3,1,2) <= 37
MCLin9(3,1,2):  37 y(1,3,2) - u(3,1,2) >= -0
MCLin10(3,1,2):  -61 y(1,3,2) + v(3,1,2) - u(3,1,2) >= -61
MCLinV(2,3,0):  x(2,0) - v(2,3,0) - x(3,0) = 1
MCLinV(3,2,0):  - x(2,0) - v(3,2,0) + x(3,0) = 6
MCLin1(2,3,0):  u(2,3,0) >= -0
MCLin2(2,3,0):  -44 y(3,2,0) - u(2,3,0) <= -0
MCLin3(2,3,0):  51 y(3,2,0) + v(2,3,0) - u(2,3,0) <= 51
MCLin4(2,3,0):  51 y(3,2,0) - u(2,3,0) >= -0
MCLin5(2,3,0):  -44 y(3,2,0) + v(2,3,0) - u(2,3,0) >= -44
MCLin6(3,2,0):  u(3,2,0) >= -0
MCLin7(3,2,0):  -58 y(2,3,0) - u(3,2,0) <= -0
MCLin8(3,2,0):  37 y(2,3,0) + v(3,2,0) - u(3,2,0) <= 37
MCLin9(3,2,0):  37 y(2,3,0) - u(3,2,0) >= -0
MCLin10(3,2,0):  -58 y(2,3,0) + v(3,2,0) - u(3,2,0) >= -58
MCLinV(2,3,1):  x(2,1) - v(2,3,1) - x(3,1) = 3
MCLinV(3,2,1):  - x(2,1) - v(3,2,1) + x(3,1) = 4
MCLin1(2,3,1):  u(2,3,1) >= -0
MCLin2(2,3,1):  -51 y(3,2,1) - u(2,3,1) <= -0
MCLin3(2,3,1):  44 y(3,2,1) + v(2,3,1) - u(2,3,1) <= 44
MCLin4(2,3,1):  44 y(3,2,1) - u(2,3,1) >= -0
MCLin5(2,3,1):  -51 y(3,2,1) + v(2,3,1) - u(2,3,1) >= -51
MCLin6(3,2,1):  u(3,2,1) >= -0
MCLin7(3,2,1):  -51 y(2,3,1) - u(3,2,1) <= -0
MCLin8(3,2,1):  44 y(2,3,1) + v(3,2,1) - u(3,2,1) <= 44
MCLin9(3,2,1):  44 y(2,3,1) - u(3,2,1) >= -0
MCLin10(3,2,1):  -51 y(2,3,1) + v(3,2,1) - u(3,2,1) >= -51
MCLinV(2,3,2):  x(2,2) - v(2,3,2) - x(3,2) = 3
MCLinV(3,2,2):  - x(2,2) - v(3,2,2) + x(3,2) = 10
MCLin1(2,3,2):  u(2,3,2) >= -0
MCLin2(2,3,2):  -57 y(3,2,2) - u(2,3,2) <= -0
MCLin3(2,3,2):  38 y(3,2,2) + v(2,3,2) - u(2,3,2) <= 38
MCLin4(2,3,2):  38 y(3,2,2) - u(2,3,2) >= -0
MCLin5(2,3,2):  -57 y(3,2,2) + v(2,3,2) - u(2,3,2) >= -57
MCLin6(3,2,2):  u(3,2,2) >= -0
MCLin7(3,2,2):  -51 y(2,3,2) - u(3,2,2) <= -0
MCLin8(3,2,2):  44 y(2,3,2) + v(3,2,2) - u(3,2,2) <= 44
MCLin9(3,2,2):  44 y(2,3,2) - u(3,2,2) >= -0
MCLin10(3,2,2):  -51 y(2,3,2) + v(3,2,2) - u(3,2,2) >= -51
makespan(0):  C - x(0,2) >= 1
makespan(1):  C - x(1,2) >= 4
makespan(2):  C - x(2,0) >= 6
makespan(3):  C - x(3,1) >= 3
Bounds
 0 <= C <= 61
 6 <= x(0,0) <= 50
 0 <= y(0,1,0) <= 1
 0 <= y(1,0,0) <= 1
 -44 <= v(0,1,0) <= 44
 -60 <= v(1,0,0) <= 28
 -610 <= u(0,1,0)
 -610 <= u(1,0,0)
 0 <= y(0,2,0) <= 1
 0 <= y(2,0,0) <= 1
 -55 <= v(0,2,0) <= 30
 -46 <= v(2,0,0) <= 39
 -610 <= u(0,2,0)
 -610 <= u(2,0,0)
 0 <= y(0,3,0) <= 1
 0 <= y(3,0,0) <= 1
 -52 <= v(0,3,0) <= 46
 -57 <= v(3,0,0) <= 41
 -610 <= u(0,3,0)
 -610 <= u(3,0,0)
 0 <= x(1,0) <= 44
 0 <= y(1,2,0) <= 1
 0 <= y(2,1,0) <= 1
 -61 <= v(1,2,0) <= 24
 -36 <= v(2,1,0) <= 49
 -610 <= u(1,2,0)
 -610 <= u(2,1,0)
 0 <= y(1,3,0) <= 1
 0 <= y(3,1,0) <= 1
 -58 <= v(1,3,0) <= 40
 -47 <= v(3,1,0) <= 51
 -610 <= u(1,3,0)
 -610 <= u(3,1,0)
 14 <= x(2,0) <= 55
 0 <= y(2,3,0) <= 1
 0 <= y(3,2,0) <= 1
 -44 <= v(2,3,0) <= 51
 -58 <= v(3,2,0) <= 37
 -610 <= u(2,3,0)
 -610 <= u(3,2,0)
 3 <= x(3,0) <= 57
 0 <= x(0,1) <= 44
 0 <= y(0,1,1) <= 1
 0 <= y(1,0,1) <= 1
 -57 <= v(0,1,1) <= 31
 -44 <= v(1,0,1) <= 44
 -610 <= u(0,1,1)
 -610 <= u(1,0,1)
 0 <= y(0,2,1) <= 1
 0 <= y(2,0,1) <= 1
 -55 <= v(0,2,1) <= 30
 -40 <= v(2,0,1) <= 45
 -610 <= u(0,2,1)
 -610 <= u(2,0,1)
 0 <= y(0,3,1) <= 1
 0 <= y(3,0,1) <= 1
 -61 <= v(0,3,1) <= 37
 -46 <= v(3,0,1) <= 52
 -610 <= u(0,3,1)
 -610 <= u(3,0,1)
 6 <= x(1,1) <= 50
 0 <= y(1,2,1) <= 1
 0 <= y(2,1,1) <= 1
 -49 <= v(1,2,1) <= 36
 -47 <= v(2,1,1) <= 38
 -610 <= u(1,2,1)
 -610 <= u(2,1,1)
 0 <= y(1,3,1) <= 1
 0 <= y(3,1,1) <= 1
 -55 <= v(1,3,1) <= 43
 -53 <= v(3,1,1) <= 45
 -610 <= u(1,3,1)
 -610 <= u(3,1,1)
 10 <= x(2,1) <= 51
 0 <= y(2,3,1) <= 1
 0 <= y(3,2,1) <= 1
 -51 <= v(2,3,1) <= 44
 -51 <= v(3,2,1) <= 44
 -610 <= u(2,3,1)
 -610 <= u(3,2,1)
 4 <= x(3,1) <= 58
 16 <= x(0,2) <= 60
 0 <= y(0,1,2) <= 1
 0 <= y(1,0,2) <= 1
 -45 <= v(0,1,2) <= 43
 -48 <= v(1,0,2) <= 40
 -610 <= u(0,1,2)
 -610 <= u(1,0,2)
 0 <= y(0,2,2) <= 1
 0 <= y(2,0,2) <= 1
 -35 <= v(0,2,2) <= 50
 -61 <= v(2,0,2) <= 24
 -610 <= u(0,2,2)
 -610 <= u(2,0,2)
 0 <= y(0,3,2) <= 1
 0 <= y(3,0,2) <= 1
 -41 <= v(0,3,2) <= 57
 -61 <= v(3,0,2) <= 37
 -610 <= u(0,3,2)
 -610 <= u(3,0,2)
 13 <= x(1,2) <= 57
 0 <= y(1,2,2) <= 1
 0 <= y(2,1,2) <= 1
 -38 <= v(1,2,2) <= 47
 -61 <= v(2,1,2) <= 24
 -610 <= u(1,2,2)
 -610 <= u(2,1,2)
 0 <= y(1,3,2) <= 1
 0 <= y(3,1,2) <= 1
 -44 <= v(1,3,2) <= 54
 -61 <= v(3,1,2) <= 37
 -610 <= u(1,3,2)
 -610 <= u(3,1,2)
 0 <= x(2,2) <= 41
 0 <= y(2,3,2) <= 1
 0 <= y(3,2,2) <= 1
 -57 <= v(2,3,2) <= 38
 -51 <= v(3,2,2) <= 44
 -610 <= u(2,3,2)
 -610 <= u(3,2,2)
 0 <= x(3,2) <= 54
Integers
C x(0,0) y(0,1,0) y(1,0,0) v(0,1,0) v(1,0,0) u(0,1,0) u(1,0,0) y(0,2,0) y(2,0,0) 
v(0,2,0) v(2,0,0) u(0,2,0) u(2,0,0) y(0,3,0) y(3,0,0) v(0,3,0) v(3,0,0) u(0,3,0) u(3,0,0) 
x(1,0) y(1,2,0) y(2,1,0) v(1,2,0) v(2,1,0) u(1,2,0) u(2,1,0) y(1,3,0) y(3,1,0) v(1,3,0) 
v(3,1,0) u(1,3,0) u(3,1,0) x(2,0) y(2,3,0) y(3,2,0) v(2,3,0) v(3,2,0) u(2,3,0) u(3,2,0) 
x(3,0) x(0,1) y(0,1,1) y(1,0,1) v(0,1,1) v(1,0,1) u(0,1,1) u(1,0,1) y(0,2,1) y(2,0,1) 
v(0,2,1) v(2,0,1) u(0,2,1) u(2,0,1) y(0,3,1) y(3,0,1) v(0,3,1) v(3,0,1) u(0,3,1) u(3,0,1) 
x(1,1) y(1,2,1) y(2,1,1) v(1,2,1) v(2,1,1) u(1,2,1) u(2,1,1) y(1,3,1) y(3,1,1) v(1,3,1) 
v(3,1,1) u(1,3,1) u(3,1,1) x(2,1) y(2,3,1) y(3,2,1) v(2,3,1) v(3,2,1) u(2,3,1) u(3,2,1) 
x(3,1) x(0,2) y(0,1,2) y(1,0,2) v(0,1,2) v(1,0,2) u(0,1,2) u(1,0,2) y(0,2,2) y(2,0,2) 
v(0,2,2) v(2,0,2) u(0,2,2) u(2,0,2) y(0,3,2) y(3,0,2) v(0,3,2) v(3,0,2) u(0,3,2) u(3,0,2) 
x(1,2) y(1,2,2) y(2,1,2) v(1,2,2) v(2,1,2) u(1,2,2) u(2,1,2) y(1,3,2) y(3,1,2) v(1,3,2) 
v(3,1,2) u(1,3,2) u(3,1,2) x(2,2) y(2,3,2) y(3,2,2) v(2,3,2) v(3,2,2) u(2,3,2) u(3,2,2) 
x(3,2) 
End
